CMPL model generation - running

CMPL version: 1.11.0
Authors: Thomas Schleiff, Mike Steglich
Distributed under the GPLv3 

create model instance ...
write model instance ...
CMPL model generation - finished

Solver - running


Welcome to IBM(R) ILOG(R) CPLEX(R) Interactive Optimizer 12.7.1.0
  with Simplex, Mixed Integer & Barrier Optimizers
5725-A06 5725-A29 5724-Y48 5724-Y49 5724-Y54 5724-Y55 5655-Y21
Copyright IBM Corp. 1988, 2017.  All Rights Reserved.

Type 'help' for a list of available commands.
Type 'help' followed by a command name for more
information on commands.

CPLEX> Specified objective sense: MINIMIZE
Selected objective  name:  line[1]
Selected RHS        name:  RHS
Selected bound      name:  BOUND
Problem '/tmp/cmpl.T15199.mps' read.
Read time = 0.04 sec. (8.25 ticks)
CPLEX> CPXPARAM_Read_APIEncoding                        "UTF-8"
Tried aggregator 3 times.
MIP Presolve eliminated 18379 rows and 29004 columns.
MIP Presolve modified 616 coefficients.
Aggregator did 1422 substitutions.
Reduced MIP has 2554 rows, 4167 columns, and 12205 nonzeros.
Reduced MIP has 3999 binaries, 0 generals, 0 SOSs, and 0 indicators.
Presolve time = 0.05 sec. (45.27 ticks)
Found incumbent of value 3795.966493 after 0.11 sec. (95.44 ticks)
Probing time = 0.01 sec. (2.65 ticks)
Tried aggregator 2 times.
MIP Presolve eliminated 4 rows and 50 columns.
MIP Presolve modified 12 coefficients.
Aggregator did 2 substitutions.
Reduced MIP has 2548 rows, 4115 columns, and 12091 nonzeros.
Reduced MIP has 4115 binaries, 0 generals, 0 SOSs, and 0 indicators.
Presolve time = 0.02 sec. (14.78 ticks)
Probing time = 0.01 sec. (2.81 ticks)
Clique table members: 3547.
MIP emphasis: balance optimality and feasibility.
MIP search method: dynamic search.
Parallel mode: none, using 1 thread.
Root relaxation solution time = 0.02 sec. (18.23 ticks)

        Nodes                                         Cuts/
   Node  Left     Objective  IInf  Best Integer    Best Bound    ItCnt     Gap

*     0+    0                         3795.9665        0.0000           100.00%
*     0     0      integral     0     1767.0696     1767.0696     1216    0.00%
Elapsed time = 0.17 sec. (142.29 ticks, tree = 0.00 MB, solutions = 2)

Root node processing (before b&c):
  Real time             =    0.17 sec. (143.57 ticks)
Sequential b&c:
  Real time             =    0.00 sec. (0.00 ticks)
                          ------------
Total (root+branch&cut) =    0.17 sec. (143.57 ticks)

Solution pool: 2 solutions saved.

MIP - Integer optimal solution:  Objective =  1.7670696270e+03
Solution time =    0.17 sec.  Iterations = 1216  Nodes = 0
Deterministic time = 143.67 ticks  (823.92 ticks/sec)

CPLEX> Incumbent solution written to file '/tmp/cmpl.T15199.gsol'.
CPLEX> 
CMPL: Time used for model generation: 1 seconds
CMPL: Time used for solving the model: 0 seconds


Solution written to ASCII file: results/output_generated/2017-08-07-4/fair-nonlinear.sol

Solver - finished
